
-3.7
-3.5
-3.4
-3.2
-3.0
-3.0
-2.8
-2.6
-2.3
-1.9
-1.0
-0.6
-0.4
-0.2
-0.1
-0.1
-0.1
-0.1
-0.1
0.0
0.0
0.0
0.0
0.0
0.0
0.0
0.0
0.0
0.0
0.0
0.0
0.0
0.0
0.0
-4.0
-3.8
-3.75
-3.5
-3.35
-3.15
-2.75
-2.7
-2.2
-1.7
-1.05
-0.65
-0.45
-0.4
-0.35
-0.2
-0.2
-0.15
0.0
0.0
0.0
0.0
0.0
0.0
0.0
0.0
0.0
0.0
0.0
0.0
0.0
0.0
0.0
0.0
0.0
0.0